(declare-const a Real)
(declare-const b Real)
(declare-const c Real)
(assert (= (* a b c) 1))
(assert (> a 0))
(assert (> b 0))
(assert (> c 0))
(assert (not (<= (+ (* -2554810368 (pow b 4)) (* -1922519040 (pow a 4)) (* -5435817984 (pow a (pow 3 -1)) (pow b (/ 11 3))) (* -2717908992 (pow a (/ 10 3)) (pow b (/ 2 3))) (* 2965327872 b (pow a 3)) (* 9665728512 a (pow b 3))) 0)))
(check-sat)
(get-model)
(exit)